38364
20,48,121,168,207,213,218,332,349,621,643,695,752,890,908,952,1143,1219,1576,1578,1588,1629,1671,1970,2028,2047,2270,2335,2365,2385,2430,2498,2516,2527,2543,2544,2557,2685,2791,2920,2966,3033,3075,3098,3132,3167,3202,3208,3216,3380,3398,3547,3599,3890,3947,4162,4167,4351,4364,4388,4607,4609,4648,4773,4836,4929,4954,4956,4975,4979
